NAME : traveling-santa-2018-prime-paths.30787.tour
COMMENT : Length = 30787
COMMENT : Found by LKH [Keld Helsgaun] Sun Jun 12 20:00:34 2022
TYPE : TOUR
DIMENSION : 100
TOUR_SECTION
1
12
48
69
13
47
65
52
98
90
87
71
3
96
57
84
18
38
56
27
36
61
34
25
5
32
49
31
100
7
89
22
41
42
21
76
78
6
63
26
75
23
15
74
28
64
9
58
54
50
93
20
29
35
82
16
2
46
70
51
72
95
33
81
83
45
30
67
53
8
24
68
91
43
14
97
40
37
94
88
80
77
44
73
85
11
19
86
99
39
92
60
55
59
4
10
17
62
66
79
-1
EOF
